rail_links1 = [|
            1,1,5,30|
            2,2,5,30|
            3,3,6,30|
            4,4,6,30|
            5,5,7,30|
            6,5,8,60|
            7,6,8,60|
            8,6,9,30|
            9,7,10,30|
            10,8,10,60|
            11,8,11,60|
            12,9,11,30|
            13,10,12,30|
            14,10,13,30|
            15,11,14,30|
            16,11,15,30|];
nstations = 15;